Solving original (integer) problem with strategy gdp.binary_multiplication...
--- Job model.gms Start 02/19/26 10:00:17 52.2.0 d8e408be LEX-LEG x86 64bit/Linux
--- Applying:
    /package/gams/52.2/gmsprmun.txt
--- GAMS Parameters defined
    Input /local/scratch/a/sgusev/repos/k_means/data/gams_scip_gdp.binary_multiplication/no_mode/2026-02-19_10-00-17/original/model.gms
    Output /local/scratch/a/sgusev/repos/k_means/data/gams_scip_gdp.binary_multiplication/no_mode/2026-02-19_10-00-17/original/output.lst
    ScrDir /local/scratch/a/sgusev/repos/k_means/data/gams_scip_gdp.binary_multiplication/no_mode/2026-02-19_10-00-17/original/225a/
    SysDir /package/gams/52.2/
    CurDir /local/scratch/a/sgusev/repos/k_means/data/gams_scip_gdp.binary_multiplication/no_mode/2026-02-19_10-00-17/original/
    LogOption 3
    AppendLog 1
Licensee: David Bernal / SECQUOIA Research Group         G251008+0003Ac-GEN
          Purdue University, Davidson School of Chemical EngineeringDCE4838
          225a/gamslice.dat
          5a82958a-fbca-4a23
          node:66820903 mem:995 cores:48 ipport:39347 v:2                  
          Evaluation license: Not for commercial or production use
          The time-limited license stops working on : Jun 30, 2027
System information: 48 physical cores and 995 Gb physical memory detected
GAMS 52.2.0   Copyright (C) 1987-2025 GAMS Development. All rights reserved
--- Starting compilation
--- model.gms(223) 2 Mb
--- $echo File /local/scratch/a/sgusev/repos/k_means/data/gams_scip_gdp.binary_multiplication/no_mode/2026-02-19_10-00-17/original/scip.opt
--- model.gms(397) 2 Mb
--- Starting execution: elapsed 0:00:00.006
--- model.gms(233) 3 Mb
--- Generating MINLP model GAMS_MODEL
--- model.gms(237) 5 Mb
---   47 rows  60 columns  280 non-zeroes
---   759 nl-code  231 nl-non-zeroes
---   33 discrete-columns
--- Range statistics (absolute non-zero finite values)
--- RHS       [min, max] : [ 1.000E+00, 1.000E+00] - Zero values observed as well
--- Bound     [min, max] : [ 1.000E+00, 1.100E+02] - Zero values observed as well
--- Matrix    [min, max] : [ 1.000E+00, 3.271E+00] - Zero values observed as well
--- model.gms(237) 3 Mb
--- Executing SCIP (Solvelink=5): elapsed 0:00:00.009

SCIP             52.2.0 d8e408be Dec 8, 2025           LEG x86 64bit/Linux    
SCIP version 9.2.4 (a94f778ac8)
Copyright (c) 2002-2025 Zuse Institute Berlin (ZIB)

External libraries: 
  CPLEX 22.1.2.0       Linear Programming Solver developed by IBM (www.cplex.com)
  CppAD 20180000.0     Algorithmic Differentiation of C++ algorithms developed by B. Bell (github.com/coin-or/CppAD)
  PaPILO 2.4.4         parallel presolve for integer and linear optimization (github.com/scipopt/papilo) (built with TBB) [GitHash: 7c826d50]
  Nauty 2.8.9          Computing Graph Automorphism Groups by Brendan D. McKay (users.cecs.anu.edu.au/~bdm/nauty)
  sassy 1.1            Symmetry preprocessor by Markus Anders (github.com/markusa4/sassy)
  Ipopt 3.14.19        Interior Point Optimizer developed by A. Waechter et.al. (github.com/coin-or/Ipopt)

reading option file /local/scratch/a/sgusev/repos/k_means/data/gams_scip_gdp.binary_multiplication/no_mode/2026-02-19_10-00-17/original/scip.opt
non-default parameter settings:
limits/time = 300
limits/gap = 1e-06
limits/absgap = 1e-10
lp/threads = 1
misc/printreason = FALSE
numerics/dualfeastol = 1e-06
parallel/maxnthreads = 1
nlpi/ipopt/linear_solver = "ma27"
nlpi/ipopt/linear_system_scaling = "mc19"

original problem has 59 variables (33 bin, 0 int, 26 cont) and 46 constraints

all 1 solutions given by solution candidate storage are infeasible

feasible solution found by trivial heuristic after 0.0 seconds, objective value 1.210000e+03
presolving:
(round 1, exhaustive) 0 del vars, 0 del conss, 0 add conss, 0 chg bounds, 0 chg sides, 0 chg coeffs, 11 upgd conss, 0 impls, 11 clqs
   (0.0s) probing cycle finished: starting next cycle
   (0.0s) symmetry computation started: requiring (bin +, int +, cont +), (fixed: bin -, int -, cont -)
   (0.0s) no symmetry present (symcode time: 0.00)
presolving (2 rounds: 2 fast, 2 medium, 2 exhaustive):
 0 deleted vars, 0 deleted constraints, 0 added constraints, 0 tightened bounds, 0 added holes, 0 changed sides, 0 changed coefficients
 0 implications, 11 cliques
presolved problem has 59 variables (33 bin, 0 int, 0 impl, 26 cont) and 46 constraints
     11 constraints of type <setppc>
      2 constraints of type <linear>
     33 constraints of type <nonlinear>
Presolving Time: 0.01
transformed 1/1 original solutions to the transformed problem space

 time | node  | left  |LP iter|LP it/n|mem/heur|mdpt |vars |cons |rows |cuts |sepa|confs|strbr|  dualbound   | primalbound  |  gap   | compl. 
  0.1s|     1 |     0 |     0 |     - |  4324k |   0 | 470 |  46 | 274 |   0 |  0 |   0 |   0 | 0.000000e+00 | 1.210000e+03 |    Inf | unknown
L 0.1s|     1 |     0 |     0 |     - |undercov|   0 | 470 |  46 | 274 |   0 |  0 |   0 |   0 | 0.000000e+00 | 1.471764e+01 |    Inf | unknown
  0.1s|     1 |     0 |    41 |     - |  4650k |   0 | 470 |  46 | 305 |  31 |  1 |   0 |   0 | 0.000000e+00 | 1.471764e+01 |    Inf | unknown
  0.1s|     1 |     0 |    41 |     - |  4656k |   0 | 470 |  46 | 305 |  31 |  1 |   0 |   0 | 0.000000e+00 | 1.471764e+01 |    Inf | unknown
  0.1s|     1 |     0 |    70 |     - |  4969k |   0 | 470 |  46 | 326 |  52 |  2 |   0 |   0 | 0.000000e+00 | 1.471764e+01 |    Inf | unknown
  0.1s|     1 |     0 |   145 |     - |  5006k |   0 | 470 |  46 | 352 |  78 |  3 |   0 |   0 | 0.000000e+00 | 1.471764e+01 |    Inf | unknown
  0.1s|     1 |     0 |   233 |     - |  5127k |   0 | 470 |  46 | 386 | 112 |  4 |   0 |   0 | 0.000000e+00 | 1.471764e+01 |    Inf | unknown
  0.1s|     1 |     0 |   328 |     - |  5249k |   0 | 470 |  46 | 418 | 144 |  5 |   0 |   0 | 0.000000e+00 | 1.471764e+01 |    Inf | unknown
  0.1s|     1 |     0 |   417 |     - |  5424k |   0 | 470 |  46 | 443 | 169 |  6 |   0 |   0 | 0.000000e+00 | 1.471764e+01 |    Inf | unknown
  0.2s|     1 |     0 |   522 |     - |  5473k |   0 | 470 |  46 | 461 | 187 |  7 |   0 |   0 | 0.000000e+00 | 1.471764e+01 |    Inf | unknown
  0.2s|     1 |     0 |   577 |     - |  5782k |   0 | 470 |  46 | 479 | 205 |  8 |   0 |   0 | 0.000000e+00 | 1.471764e+01 |    Inf | unknown
  0.2s|     1 |     0 |   626 |     - |  5866k |   0 | 470 |  46 | 499 | 225 |  9 |   0 |   0 | 0.000000e+00 | 1.471764e+01 |    Inf | unknown
  0.2s|     1 |     0 |   681 |     - |  5986k |   0 | 470 |  46 | 516 | 242 | 10 |   0 |   0 | 0.000000e+00 | 1.471764e+01 |    Inf | unknown
  0.2s|     1 |     0 |   721 |     - |  6066k |   0 | 470 |  46 | 534 | 260 | 11 |   0 |   0 | 0.000000e+00 | 1.471764e+01 |    Inf | unknown
  0.2s|     1 |     0 |   761 |     - |  6133k |   0 | 470 |  46 | 369 | 275 | 12 |   0 |   0 | 0.000000e+00 | 1.471764e+01 |    Inf | unknown
 time | node  | left  |LP iter|LP it/n|mem/heur|mdpt |vars |cons |rows |cuts |sepa|confs|strbr|  dualbound   | primalbound  |  gap   | compl. 
r 0.3s|     1 |     0 |  1138 |     - |intshift|   0 | 470 |  46 | 369 | 275 | 12 |   0 |   0 | 0.000000e+00 | 1.437151e+01 |    Inf | unknown
d 0.4s|     1 |     0 |  1138 |     - |    mpec|   0 | 470 |  46 | 369 | 275 | 12 |   0 |   0 | 0.000000e+00 | 1.135818e+01 |    Inf | unknown
  0.4s|     1 |     0 |  1138 |     - |  7305k |   0 | 470 |  46 | 369 | 275 | 12 |   0 |   0 | 0.000000e+00 | 1.135818e+01 |    Inf | unknown
  0.4s|     1 |     0 |  1160 |     - |  7340k |   0 | 470 |  46 | 384 | 290 | 13 |   0 |   0 | 0.000000e+00 | 1.135818e+01 |    Inf | unknown
  0.4s|     1 |     0 |  1170 |     - |  7345k |   0 | 470 |  46 | 389 | 295 | 14 |   0 |   0 | 0.000000e+00 | 1.135818e+01 |    Inf | unknown
  0.4s|     1 |     2 |  1170 |     - |  7357k |   0 | 470 |  46 | 389 | 295 | 14 |   0 |  19 | 0.000000e+00 | 1.135818e+01 |    Inf | unknown
d 0.6s|    27 |    28 |  6256 | 210.1 |nlpdivin|   9 | 470 |  46 | 546 |2338 |  9 |   0 |  34 | 0.000000e+00 | 9.734155e+00 |    Inf | unknown
  1.3s|   100 |   101 | 24759 | 242.1 |    11M |  11 | 470 |  46 | 577 |7838 | 10 |   0 |  86 | 0.000000e+00 | 9.734155e+00 |    Inf | unknown
  2.2s|   200 |   201 | 48775 | 241.1 |    16M |  11 | 470 |  46 | 592 |  15k|  8 |   0 | 105 | 0.000000e+00 | 9.734155e+00 |    Inf | unknown
  3.1s|   300 |   301 | 70057 | 231.7 |    18M |  12 | 470 |  46 | 669 |  22k|  9 |   0 | 120 | 0.000000e+00 | 9.734155e+00 |    Inf | unknown
  4.1s|   400 |   401 | 92487 | 229.8 |    23M |  14 | 470 |  46 | 624 |  30k|  8 |   0 | 144 | 1.271438e-01 | 9.734155e+00 |7556.02%| unknown
  5.0s|   500 |   501 |112175 | 223.2 |    26M |  14 | 470 |  46 | 575 |  37k|  7 |   0 | 159 | 7.270079e-01 | 9.734155e+00 |1238.93%| unknown
  5.8s|   600 |   599 |130578 | 216.7 |    29M |  15 | 470 |  46 | 605 |  44k|  8 |   0 | 171 | 1.245152e+00 | 9.734155e+00 | 681.76%| unknown
  6.6s|   700 |   697 |147737 | 210.2 |    30M |  15 | 470 |  46 | 641 |  50k|  9 |   0 | 178 | 1.269686e+00 | 9.734155e+00 | 666.66%| unknown
  7.5s|   800 |   793 |167963 | 209.2 |    34M |  16 | 470 |  46 | 581 |  57k|  1 |   3 | 186 | 1.459361e+00 | 9.734155e+00 | 567.01%| unknown
 time | node  | left  |LP iter|LP it/n|mem/heur|mdpt |vars |cons |rows |cuts |sepa|confs|strbr|  dualbound   | primalbound  |  gap   | compl. 
  8.3s|   900 |   891 |187759 | 208.0 |    36M |  16 | 470 |  46 | 585 |  64k|  7 |   3 | 197 | 1.661508e+00 | 9.734155e+00 | 485.86%| unknown
  9.2s|  1000 |   989 |208785 | 208.2 |    40M |  16 | 470 |  46 | 635 |  71k| 10 |   3 | 203 | 2.077326e+00 | 9.734155e+00 | 368.59%| unknown
 10.0s|  1100 |  1087 |226558 | 205.4 |    41M |  17 | 470 |  46 | 457 |  78k|  2 |   8 | 209 | 2.121133e+00 | 9.734155e+00 | 358.91%| unknown
 10.7s|  1200 |  1179 |243781 | 202.7 |    44M |  17 | 470 |  46 | 637 |  84k|  9 |   8 | 216 | 2.136711e+00 | 9.734155e+00 | 355.57%| unknown
 11.5s|  1300 |  1267 |260524 | 199.9 |    46M |  17 | 470 |  46 | 632 |  90k|  8 |   8 | 219 | 2.556285e+00 | 9.734155e+00 | 280.79%| unknown
 12.2s|  1400 |  1359 |275322 | 196.2 |    47M |  17 | 470 |  46 | 661 |  95k| 10 |   9 | 223 | 2.795011e+00 | 9.734155e+00 | 248.27%| unknown
 12.8s|  1500 |  1453 |287716 | 191.4 |    50M |  19 | 470 |  46 | 657 | 100k|  8 |   9 | 225 | 2.851135e+00 | 9.734155e+00 | 241.41%| unknown
 13.5s|  1600 |  1537 |301105 | 187.8 |    51M |  19 | 470 |  46 | 646 | 106k|  5 |  10 | 227 | 2.959139e+00 | 9.734155e+00 | 228.95%|  20.62%
 14.1s|  1700 |  1623 |313981 | 184.3 |    53M |  19 | 470 |  46 | 619 | 110k|  7 |  10 | 229 | 3.074764e+00 | 9.734155e+00 | 216.58%|  20.78%
*14.7s|  1796 |  1595 |326962 | 181.7 |    LP  |  20 | 470 |  46 | 721 | 115k|  7 |  12 | 231 | 3.319679e+00 | 9.195102e+00 | 176.99%|  21.71%
 14.7s|  1800 |  1597 |327484 | 181.6 |    54M |  20 | 470 |  46 | 576 | 116k|  7 |  12 | 231 | 3.319679e+00 | 9.195102e+00 | 176.99%|  21.77%
 15.2s|  1900 |  1641 |336940 | 177.0 |    55M |  20 | 470 |  46 | 627 | 120k|  7 |  16 | 232 | 3.469767e+00 | 9.195102e+00 | 165.01%|  22.45%
 15.5s|  2000 |  1675 |344454 | 171.9 |    57M |  20 | 470 |  46 | 631 | 123k|  5 |  17 | 236 | 3.521449e+00 | 9.195102e+00 | 161.12%|  22.83%
 16.0s|  2100 |  1713 |353188 | 167.9 |    57M |  20 | 470 |  46 | 536 | 126k|  2 |  21 | 239 | 3.558159e+00 | 9.195102e+00 | 158.42%|  23.47%
 16.4s|  2200 |  1751 |361493 | 164.0 |    58M |  20 | 470 |  46 | 546 | 130k|  9 |  25 | 239 | 3.558170e+00 | 9.195102e+00 | 158.42%|  24.07%
 time | node  | left  |LP iter|LP it/n|mem/heur|mdpt |vars |cons |rows |cuts |sepa|confs|strbr|  dualbound   | primalbound  |  gap   | compl. 
 16.8s|  2300 |  1789 |369113 | 160.2 |    60M |  20 | 470 |  46 | 648 | 133k|  7 |  28 | 240 | 3.585041e+00 | 9.195102e+00 | 156.49%|  24.49%
 17.2s|  2400 |  1827 |379517 | 157.9 |    61M |  20 | 470 |  46 | 654 | 137k|  9 |  32 | 240 | 3.593741e+00 | 9.195102e+00 | 155.86%|  25.05%
 17.7s|  2500 |  1857 |388712 | 155.2 |    62M |  20 | 470 |  46 | 594 | 141k|  1 |  37 | 241 | 3.613102e+00 | 9.195102e+00 | 154.49%|  25.69%
 18.0s|  2600 |  1883 |396295 | 152.2 |    64M |  20 | 470 |  46 | 623 | 145k|  5 |  40 | 244 | 3.634792e+00 | 9.195102e+00 | 152.97%|  26.52%
 18.4s|  2700 |  1921 |404595 | 149.6 |    65M |  20 | 470 |  46 | 666 | 148k|  0 |  42 | 245 | 3.653643e+00 | 9.195102e+00 | 151.67%|  26.95%
 18.9s|  2800 |  1955 |414594 | 147.8 |    66M |  20 | 470 |  46 | 624 | 152k|  7 |  47 | 245 | 3.757357e+00 | 9.195102e+00 | 144.72%|  27.57%
 19.2s|  2900 |  1961 |421017 | 145.0 |    67M |  20 | 470 |  46 | 635 | 154k|  0 |  51 | 245 | 3.784379e+00 | 9.195102e+00 | 142.98%|  28.29%
 19.6s|  3000 |  1967 |429249 | 142.9 |    67M |  20 | 470 |  46 | 624 | 158k|  1 |  59 | 247 | 3.814700e+00 | 9.195102e+00 | 141.04%|  28.96%
 20.0s|  3100 |  1991 |436995 | 140.8 |    67M |  20 | 470 |  46 | 582 | 161k|  0 |  64 | 250 | 3.991887e+00 | 9.195102e+00 | 130.34%|  29.66%
 20.3s|  3200 |  2005 |443580 | 138.4 |    68M |  20 | 470 |  46 | 619 | 163k|  0 |  68 | 253 | 4.032790e+00 | 9.195102e+00 | 128.01%|  30.32%
 20.7s|  3300 |  2035 |452155 | 136.8 |    69M |  20 | 470 |  46 | 600 | 167k|  2 |  71 | 259 | 4.098297e+00 | 9.195102e+00 | 124.36%|  30.89%
 21.1s|  3400 |  2059 |459956 | 135.1 |    70M |  20 | 470 |  46 | 705 | 170k|  2 |  74 | 262 | 4.103452e+00 | 9.195102e+00 | 124.08%|  31.40%
 21.5s|  3500 |  2083 |467186 | 133.3 |    72M |  20 | 470 |  46 | 638 | 173k|  0 |  77 | 263 | 4.174761e+00 | 9.195102e+00 | 120.25%|  32.01%
 21.8s|  3600 |  2097 |474155 | 131.5 |    74M |  20 | 470 |  46 | 597 | 176k|  0 |  80 | 264 | 4.174900e+00 | 9.195102e+00 | 120.25%|  32.66%
 22.2s|  3700 |  2111 |480775 | 129.8 |    75M |  20 | 470 |  46 | 609 | 179k|  6 |  87 | 264 | 4.305714e+00 | 9.195102e+00 | 113.56%|  33.31%
 time | node  | left  |LP iter|LP it/n|mem/heur|mdpt |vars |cons |rows |cuts |sepa|confs|strbr|  dualbound   | primalbound  |  gap   | compl. 
 22.6s|  3800 |  2127 |488396 | 128.4 |    75M |  20 | 470 |  46 | 640 | 182k|  9 |  90 | 265 | 4.422621e+00 | 9.195102e+00 | 107.91%|  34.27%
 22.9s|  3900 |  2135 |495106 | 126.8 |    76M |  20 | 470 |  46 | 565 | 184k|  0 |  97 | 265 | 4.426821e+00 | 9.195102e+00 | 107.71%|  35.16%
 23.3s|  4000 |  2161 |502484 | 125.5 |    77M |  20 | 470 |  46 | 593 | 187k|  9 | 101 | 266 | 4.442916e+00 | 9.195102e+00 | 106.96%|  35.71%
 23.6s|  4100 |  2181 |508721 | 123.9 |    77M |  20 | 470 |  46 | 667 | 190k|  2 | 102 | 266 | 4.442916e+00 | 9.195102e+00 | 106.96%|  36.36%
 24.0s|  4200 |  2181 |514554 | 122.4 |    77M |  20 | 470 |  46 | 644 | 192k|  3 | 108 | 269 | 4.442916e+00 | 9.195102e+00 | 106.96%|  37.04%
 24.4s|  4300 |  2225 |524416 | 121.8 |    78M |  20 | 470 |  46 | 573 | 196k|  7 | 111 | 276 | 4.491350e+00 | 9.195102e+00 | 104.73%|  37.51%
 24.8s|  4400 |  2245 |531622 | 120.7 |    80M |  20 | 470 |  46 | 648 | 199k|  6 | 116 | 279 | 4.535301e+00 | 9.195102e+00 | 102.75%|  37.95%
 25.2s|  4500 |  2259 |539016 | 119.6 |    80M |  20 | 470 |  46 | 600 | 202k|  2 | 118 | 285 | 4.626512e+00 | 9.195102e+00 |  98.75%|  38.40%
 25.6s|  4600 |  2263 |544497 | 118.2 |    80M |  21 | 470 |  46 | 673 | 204k|  0 | 123 | 285 | 4.687203e+00 | 9.195102e+00 |  96.17%|  38.99%
 26.0s|  4700 |  2275 |551814 | 117.3 |    80M |  21 | 470 |  46 | 634 | 207k|  2 | 124 | 288 | 4.759133e+00 | 9.195102e+00 |  93.21%|  39.44%
 26.3s|  4800 |  2289 |557785 | 116.1 |    81M |  21 | 470 |  46 | 625 | 210k|  0 | 126 | 289 | 4.794349e+00 | 9.195102e+00 |  91.79%|  39.92%
 26.6s|  4900 |  2299 |563674 | 114.9 |    82M |  21 | 470 |  46 | 546 | 212k|  2 | 136 | 289 | 4.815132e+00 | 9.195102e+00 |  90.96%|  40.48%
 27.0s|  5000 |  2299 |569898 | 113.8 |    83M |  21 | 470 |  46 | 606 | 215k|  6 | 140 | 291 | 4.815132e+00 | 9.195102e+00 |  90.96%|  41.29%
 27.2s|  5100 |  2299 |575364 | 112.7 |    84M |  21 | 470 |  46 | 643 | 217k|  2 | 146 | 292 | 4.834976e+00 | 9.195102e+00 |  90.18%|  42.03%
 27.5s|  5200 |  2303 |581476 | 111.7 |    85M |  21 | 470 |  46 | 631 | 220k|  1 | 147 | 294 | 4.870271e+00 | 9.195102e+00 |  88.80%|  42.51%
 time | node  | left  |LP iter|LP it/n|mem/heur|mdpt |vars |cons |rows |cuts |sepa|confs|strbr|  dualbound   | primalbound  |  gap   | compl. 
 27.9s|  5300 |  2309 |588361 | 110.9 |    85M |  21 | 470 |  46 | 659 | 223k|  8 | 152 | 300 | 4.888793e+00 | 9.195102e+00 |  88.09%|  43.20%
 28.2s|  5400 |  2305 |593746 | 109.8 |    85M |  21 | 470 |  46 | 590 | 225k|  3 | 159 | 304 | 4.909077e+00 | 9.195102e+00 |  87.31%|  43.61%
 28.6s|  5500 |  2319 |601099 | 109.2 |    85M |  21 | 470 |  46 | 569 | 228k|  0 | 165 | 307 | 5.044283e+00 | 9.195102e+00 |  82.29%|  44.31%
 28.9s|  5600 |  2329 |607704 | 108.4 |    87M |  21 | 470 |  46 | 567 | 230k|  0 | 170 | 307 | 5.110021e+00 | 9.195102e+00 |  79.94%|  44.95%
 29.2s|  5700 |  2345 |613325 | 107.5 |    87M |  21 | 470 |  46 | 649 | 233k|  7 | 176 | 308 | 5.136681e+00 | 9.195102e+00 |  79.01%|  45.26%
 29.5s|  5800 |  2349 |619976 | 106.8 |    87M |  21 | 470 |  46 | 572 | 235k|  8 | 179 | 309 | 5.161882e+00 | 9.195102e+00 |  78.13%|  45.84%
 29.9s|  5900 |  2355 |626904 | 106.1 |    87M |  21 | 470 |  46 | 617 | 238k|  0 | 184 | 311 | 5.180978e+00 | 9.195102e+00 |  77.48%|  46.44%
 30.2s|  6000 |  2361 |633143 | 105.4 |    87M |  21 | 470 |  46 | 597 | 241k|  0 | 185 | 313 | 5.216852e+00 | 9.195102e+00 |  76.26%|  47.07%
 30.5s|  6100 |  2359 |638530 | 104.6 |    88M |  21 | 470 |  46 | 604 | 243k|  9 | 193 | 316 | 5.218711e+00 | 9.195102e+00 |  76.19%|  47.49%
 30.7s|  6200 |  2359 |644309 | 103.8 |    88M |  21 | 470 |  46 | 589 | 245k|  2 | 196 | 316 | 5.230940e+00 | 9.195102e+00 |  75.78%|  48.21%
 31.1s|  6300 |  2355 |649803 | 103.0 |    89M |  21 | 470 |  46 | 605 | 247k|  2 | 203 | 320 | 5.247775e+00 | 9.195102e+00 |  75.22%|  48.65%
 31.3s|  6400 |  2355 |655637 | 102.3 |    89M |  21 | 470 |  46 | 588 | 249k|  1 | 206 | 321 | 5.269853e+00 | 9.195102e+00 |  74.48%|  49.25%
 31.6s|  6500 |  2365 |661585 | 101.7 |    89M |  21 | 470 |  46 | 587 | 252k|  1 | 210 | 326 | 5.276054e+00 | 9.195102e+00 |  74.28%|  49.55%
 31.9s|  6600 |  2363 |667643 | 101.1 |    90M |  21 | 470 |  46 | 681 | 254k|  0 | 213 | 327 | 5.319767e+00 | 9.195102e+00 |  72.85%|  50.22%
 32.2s|  6700 |  2359 |673029 | 100.3 |    90M |  21 | 470 |  46 | 605 | 256k|  1 | 217 | 328 | 5.420109e+00 | 9.195102e+00 |  69.65%|  50.72%
 time | node  | left  |LP iter|LP it/n|mem/heur|mdpt |vars |cons |rows |cuts |sepa|confs|strbr|  dualbound   | primalbound  |  gap   | compl. 
 32.4s|  6800 |  2353 |678229 |  99.6 |    91M |  21 | 470 |  46 | 568 | 258k|  1 | 221 | 329 | 5.461313e+00 | 9.195102e+00 |  68.37%|  51.14%
 32.7s|  6900 |  2351 |683648 |  99.0 |    92M |  21 | 470 |  46 | 619 | 260k|  5 | 224 | 329 | 5.497702e+00 | 9.195102e+00 |  67.25%|  51.91%
 33.0s|  7000 |  2345 |688637 |  98.3 |    92M |  21 | 470 |  46 | 613 | 262k|  2 | 232 | 333 | 5.498079e+00 | 9.195102e+00 |  67.24%|  52.47%
 33.3s|  7100 |  2331 |694680 |  97.7 |    92M |  21 | 470 |  46 | 663 | 264k|  2 | 234 | 335 | 5.507545e+00 | 9.195102e+00 |  66.95%|  53.08%
 33.6s|  7200 |  2311 |699664 |  97.1 |    92M |  21 | 470 |  46 | 618 | 266k|  1 | 239 | 335 | 5.516656e+00 | 9.195102e+00 |  66.68%|  53.57%
 33.8s|  7300 |  2305 |704340 |  96.4 |    92M |  21 | 470 |  46 | 641 | 268k|  2 | 245 | 340 | 5.540808e+00 | 9.195102e+00 |  65.95%|  54.11%
 34.1s|  7400 |  2291 |709875 |  95.8 |    92M |  21 | 470 |  46 | 610 | 270k|  2 | 250 | 341 | 5.554543e+00 | 9.195102e+00 |  65.54%|  54.65%
 34.3s|  7500 |  2277 |714411 |  95.2 |    92M |  21 | 470 |  46 | 613 | 272k|  2 | 256 | 343 | 5.577636e+00 | 9.195102e+00 |  64.86%|  55.18%
 34.6s|  7600 |  2267 |719082 |  94.5 |    92M |  21 | 470 |  46 | 609 | 273k|  2 | 260 | 343 | 5.599336e+00 | 9.195102e+00 |  64.22%|  55.63%
 34.9s|  7700 |  2263 |725621 |  94.1 |    94M |  21 | 470 |  46 | 960 | 276k|  3 | 263 | 344 | 5.634814e+00 | 9.195102e+00 |  63.18%|  56.13%
 35.1s|  7800 |  2243 |729765 |  93.5 |    94M |  21 | 470 |  46 | 667 | 277k|  4 | 269 | 344 | 5.642810e+00 | 9.195102e+00 |  62.95%|  56.73%
 35.4s|  7900 |  2223 |734340 |  92.9 |    94M |  21 | 470 |  46 | 595 | 279k|  0 | 271 | 346 | 5.653314e+00 | 9.195102e+00 |  62.65%|  57.31%
 35.6s|  8000 |  2205 |738357 |  92.2 |    94M |  21 | 470 |  46 | 611 | 281k|  2 | 272 | 347 | 5.681494e+00 | 9.195102e+00 |  61.84%|  57.92%
 35.9s|  8100 |  2187 |743483 |  91.7 |    94M |  21 | 470 |  46 | 624 | 283k|  0 | 278 | 347 | 5.739134e+00 | 9.195102e+00 |  60.22%|  58.67%
 36.2s|  8200 |  2169 |747810 |  91.1 |    94M |  21 | 470 |  46 | 626 | 284k|  0 | 281 | 349 | 5.752584e+00 | 9.195102e+00 |  59.84%|  59.04%
 time | node  | left  |LP iter|LP it/n|mem/heur|mdpt |vars |cons |rows |cuts |sepa|confs|strbr|  dualbound   | primalbound  |  gap   | compl. 
 36.5s|  8300 |  2155 |753234 |  90.7 |    94M |  21 | 470 |  46 | 626 | 287k|  5 | 283 | 351 | 5.757945e+00 | 9.195102e+00 |  59.69%|  59.72%
 36.7s|  8400 |  2145 |758743 |  90.2 |    94M |  21 | 470 |  46 | 689 | 289k|  6 | 285 | 353 | 5.763019e+00 | 9.195102e+00 |  59.55%|  60.23%
 37.0s|  8500 |  2129 |763488 |  89.7 |    94M |  21 | 470 |  46 | 588 | 290k|  2 | 291 | 355 | 5.808445e+00 | 9.195102e+00 |  58.31%|  60.75%
 37.2s|  8600 |  2117 |767521 |  89.2 |    94M |  21 | 470 |  46 | 609 | 292k|  0 | 294 | 355 | 5.816018e+00 | 9.195102e+00 |  58.10%|  61.18%
 37.5s|  8700 |  2093 |772558 |  88.7 |    94M |  21 | 470 |  46 | 586 | 294k|  0 | 302 | 355 | 5.816067e+00 | 9.195102e+00 |  58.10%|  61.65%
 37.7s|  8800 |  2071 |777621 |  88.3 |    94M |  21 | 470 |  46 | 589 | 296k|  0 | 309 | 357 | 5.863806e+00 | 9.195102e+00 |  56.81%|  62.11%
 38.0s|  8900 |  2047 |782158 |  87.8 |    94M |  21 | 470 |  46 | 671 | 297k|  1 | 313 | 358 | 5.881839e+00 | 9.195102e+00 |  56.33%|  62.75%
 38.2s|  9000 |  2021 |786587 |  87.3 |    94M |  21 | 470 |  46 | 565 | 299k|  2 | 319 | 360 | 5.921227e+00 | 9.195102e+00 |  55.29%|  63.35%
 38.5s|  9100 |  1999 |791424 |  86.9 |    94M |  21 | 470 |  46 | 669 | 300k|  7 | 324 | 360 | 5.965587e+00 | 9.195102e+00 |  54.14%|  63.91%
 38.7s|  9200 |  1989 |796379 |  86.5 |    94M |  21 | 470 |  46 | 604 | 302k| 13 | 328 | 361 | 6.026427e+00 | 9.195102e+00 |  52.58%|  64.41%
 39.0s|  9300 |  1969 |800807 |  86.0 |    95M |  21 | 470 |  46 | 623 | 304k|  2 | 333 | 364 | 6.084883e+00 | 9.195102e+00 |  51.11%|  64.95%
 39.3s|  9400 |  1955 |805942 |  85.7 |    95M |  21 | 470 |  46 | 630 | 306k|  0 | 338 | 364 | 6.135357e+00 | 9.195102e+00 |  49.87%|  65.71%
 39.5s|  9500 |  1931 |810557 |  85.2 |    95M |  21 | 470 |  46 | 601 | 308k|  1 | 344 | 364 | 6.171984e+00 | 9.195102e+00 |  48.98%|  66.28%
 39.7s|  9600 |  1913 |815031 |  84.8 |    95M |  21 | 470 |  46 | 595 | 310k|  3 | 351 | 365 | 6.178673e+00 | 9.195102e+00 |  48.82%|  66.77%
 40.0s|  9700 |  1897 |820759 |  84.5 |    95M |  21 | 470 |  46 | 655 | 312k|  5 | 355 | 367 | 6.207938e+00 | 9.195102e+00 |  48.12%|  67.18%
 time | node  | left  |LP iter|LP it/n|mem/heur|mdpt |vars |cons |rows |cuts |sepa|confs|strbr|  dualbound   | primalbound  |  gap   | compl. 
 40.3s|  9800 |  1877 |825315 |  84.1 |    95M |  21 | 470 |  46 | 661 | 313k|  0 | 360 | 370 | 6.256637e+00 | 9.195102e+00 |  46.97%|  67.77%
 40.5s|  9900 |  1843 |829673 |  83.7 |    95M |  21 | 470 |  46 | 626 | 315k|  2 | 362 | 370 | 6.267386e+00 | 9.195102e+00 |  46.71%|  68.27%
 40.8s| 10000 |  1825 |834581 |  83.4 |    95M |  21 | 470 |  46 | 634 | 317k|  0 | 362 | 374 | 6.355191e+00 | 9.195102e+00 |  44.69%|  68.78%
 41.0s| 10100 |  1797 |839365 |  83.0 |    95M |  21 | 470 |  46 | 661 | 318k|  1 | 371 | 375 | 6.381896e+00 | 9.195102e+00 |  44.08%|  69.25%
 41.3s| 10200 |  1783 |844059 |  82.7 |    95M |  21 | 470 |  46 | 770 | 320k|  2 | 376 | 377 | 6.389415e+00 | 9.195102e+00 |  43.91%|  69.68%
 41.5s| 10300 |  1763 |849180 |  82.4 |    95M |  21 | 470 |  46 | 651 | 322k|  1 | 382 | 377 | 6.431371e+00 | 9.195102e+00 |  42.97%|  70.31%
 41.8s| 10400 |  1735 |853948 |  82.0 |    95M |  21 | 470 |  46 | 554 | 324k|  0 | 388 | 378 | 6.453156e+00 | 9.195102e+00 |  42.49%|  71.13%
 42.0s| 10500 |  1707 |857567 |  81.6 |    95M |  21 | 470 |  46 | 693 | 325k|  1 | 393 | 380 | 6.455995e+00 | 9.195102e+00 |  42.43%|  71.64%
 42.2s| 10600 |  1675 |861673 |  81.2 |    95M |  21 | 470 |  46 | 590 | 326k|  1 | 395 | 380 | 6.481956e+00 | 9.195102e+00 |  41.86%|  72.16%
 42.4s| 10700 |  1651 |865594 |  80.8 |    95M |  21 | 470 |  46 |1054 | 328k|  0 | 400 | 380 | 6.504583e+00 | 9.195102e+00 |  41.36%|  72.64%
 42.7s| 10800 |  1615 |870379 |  80.5 |    95M |  21 | 470 |  46 | 664 | 329k|  6 | 407 | 384 | 6.525766e+00 | 9.195102e+00 |  40.90%|  73.25%
 42.9s| 10900 |  1591 |874776 |  80.2 |    95M |  21 | 470 |  46 | 599 | 331k|  2 | 412 | 388 | 6.561084e+00 | 9.195102e+00 |  40.15%|  73.61%
 43.2s| 11000 |  1567 |878983 |  79.8 |    95M |  21 | 470 |  46 | 612 | 333k|  2 | 418 | 392 | 6.579762e+00 | 9.195102e+00 |  39.75%|  74.14%
 43.4s| 11100 |  1537 |883725 |  79.6 |    95M |  21 | 470 |  46 | 647 | 334k|  9 | 424 | 393 | 6.599251e+00 | 9.195102e+00 |  39.34%|  74.90%
 43.7s| 11200 |  1505 |889636 |  79.4 |    95M |  21 | 470 |  46 | 607 | 336k|  0 | 427 | 395 | 6.622099e+00 | 9.195102e+00 |  38.85%|  75.51%
 time | node  | left  |LP iter|LP it/n|mem/heur|mdpt |vars |cons |rows |cuts |sepa|confs|strbr|  dualbound   | primalbound  |  gap   | compl. 
 43.9s| 11300 |  1481 |894481 |  79.1 |    96M |  21 | 470 |  46 | 694 | 338k|  1 | 430 | 400 | 6.676305e+00 | 9.195102e+00 |  37.73%|  75.94%
 44.1s| 11400 |  1443 |898373 |  78.7 |    96M |  21 | 470 |  46 | 580 | 339k|  2 | 440 | 400 | 6.729994e+00 | 9.195102e+00 |  36.63%|  76.53%
 44.3s| 11500 |  1409 |902209 |  78.4 |    96M |  21 | 470 |  46 | 655 | 341k|  0 | 446 | 402 | 6.772049e+00 | 9.195102e+00 |  35.78%|  77.16%
 44.6s| 11600 |  1381 |907642 |  78.2 |    96M |  21 | 470 |  46 | 604 | 342k|  0 | 451 | 402 | 6.786083e+00 | 9.195102e+00 |  35.50%|  77.65%
 44.8s| 11700 |  1353 |911693 |  77.9 |    96M |  21 | 470 |  46 | 622 | 344k|  0 | 454 | 402 | 6.800288e+00 | 9.195102e+00 |  35.22%|  78.29%
 45.0s| 11800 |  1321 |915391 |  77.5 |    96M |  21 | 470 |  46 | 633 | 345k|  1 | 462 | 406 | 6.806944e+00 | 9.195102e+00 |  35.08%|  78.80%
 45.2s| 11900 |  1289 |919500 |  77.2 |    96M |  21 | 470 |  46 | 706 | 346k|  2 | 466 | 407 | 6.841144e+00 | 9.195102e+00 |  34.41%|  79.28%
 45.5s| 12000 |  1247 |923666 |  76.9 |    96M |  21 | 470 |  46 | 631 | 348k|  2 | 470 | 410 | 6.866803e+00 | 9.195102e+00 |  33.91%|  80.12%
 45.7s| 12100 |  1211 |927679 |  76.6 |    97M |  21 | 470 |  46 | 612 | 349k|  2 | 474 | 412 | 6.884553e+00 | 9.195102e+00 |  33.56%|  80.53%
 45.9s| 12200 |  1165 |931626 |  76.3 |    97M |  21 | 470 |  46 | 648 | 350k|  7 | 477 | 413 | 6.935997e+00 | 9.195102e+00 |  32.57%|  81.34%
 46.1s| 12300 |  1131 |935622 |  76.0 |    97M |  21 | 470 |  46 | 655 | 352k|  0 | 485 | 416 | 6.950851e+00 | 9.195102e+00 |  32.29%|  81.80%
 46.3s| 12400 |  1103 |939790 |  75.7 |    97M |  21 | 470 |  46 | 802 | 353k|  7 | 489 | 417 | 6.997185e+00 | 9.195102e+00 |  31.41%|  82.46%
 46.5s| 12500 |  1073 |943619 |  75.4 |    97M |  21 | 470 |  46 | 606 | 355k|  0 | 494 | 418 | 7.025702e+00 | 9.195102e+00 |  30.88%|  82.92%
 46.7s| 12600 |  1021 |947035 |  75.1 |    97M |  21 | 470 |  46 | 558 | 356k|  6 | 501 | 419 | 7.143255e+00 | 9.195102e+00 |  28.72%|  83.67%
 47.0s| 12700 |   989 |951545 |  74.9 |    98M |  21 | 470 |  46 | 563 | 357k|  0 | 503 | 420 | 7.197063e+00 | 9.195102e+00 |  27.76%|  84.34%
 time | node  | left  |LP iter|LP it/n|mem/heur|mdpt |vars |cons |rows |cuts |sepa|confs|strbr|  dualbound   | primalbound  |  gap   | compl. 
 47.2s| 12800 |   941 |954987 |  74.6 |    98M |  21 | 470 |  46 | 825 | 358k|  5 | 507 | 421 | 7.218667e+00 | 9.195102e+00 |  27.38%|  85.05%
 47.4s| 12900 |   899 |958957 |  74.3 |    98M |  21 | 470 |  46 | 641 | 360k|  0 | 509 | 421 | 7.278928e+00 | 9.195102e+00 |  26.32%|  85.73%
 47.6s| 13000 |   853 |962574 |  74.0 |    98M |  21 | 470 |  46 | 667 | 361k|  8 | 513 | 421 | 7.289479e+00 | 9.195102e+00 |  26.14%|  86.47%
 47.8s| 13100 |   809 |966629 |  73.7 |    98M |  21 | 470 |  46 | 614 | 362k|  0 | 519 | 421 | 7.318949e+00 | 9.195102e+00 |  25.63%|  87.29%
 48.1s| 13200 |   775 |971403 |  73.5 |    98M |  21 | 470 |  46 | 770 | 364k|  0 | 526 | 421 | 7.398895e+00 | 9.195102e+00 |  24.28%|  88.09%
 48.3s| 13300 |   727 |975008 |  73.3 |    98M |  21 | 470 |  46 | 646 | 365k|  1 | 533 | 423 | 7.446428e+00 | 9.195102e+00 |  23.48%|  88.79%
 48.4s| 13400 |   701 |978558 |  73.0 |    98M |  21 | 470 |  46 | 643 | 366k|  2 | 537 | 423 | 7.501584e+00 | 9.195102e+00 |  22.58%|  89.34%
 48.6s| 13500 |   655 |981813 |  72.7 |    98M |  21 | 470 |  46 | 612 | 367k|  2 | 540 | 424 | 7.529593e+00 | 9.195102e+00 |  22.12%|  90.03%
 48.9s| 13600 |   617 |986312 |  72.5 |    99M |  21 | 470 |  46 | 619 | 368k|  0 | 546 | 424 | 7.546222e+00 | 9.195102e+00 |  21.85%|  90.64%
 49.1s| 13700 |   569 |990338 |  72.2 |    99M |  21 | 470 |  46 | 638 | 369k|  1 | 549 | 424 | 7.555008e+00 | 9.195102e+00 |  21.71%|  91.17%
 49.3s| 13800 |   531 |993792 |  72.0 |    99M |  21 | 470 |  46 | 589 | 371k|  0 | 555 | 427 | 7.558290e+00 | 9.195102e+00 |  21.66%|  91.65%
 49.5s| 13900 |   487 |997035 |  71.7 |   100M |  21 | 470 |  46 | 848 | 371k|  1 | 561 | 428 | 7.615537e+00 | 9.195102e+00 |  20.74%|  92.27%
 49.7s| 14000 |   451 |  1001k|  71.5 |   100M |  21 | 470 |  46 | 612 | 373k|  2 | 566 | 428 | 7.759137e+00 | 9.195102e+00 |  18.51%|  92.82%
 49.9s| 14100 |   409 |  1004k|  71.2 |   100M |  21 | 470 |  46 | 536 | 374k|  1 | 571 | 428 | 7.813765e+00 | 9.195102e+00 |  17.68%|  93.46%
 50.1s| 14200 |   363 |  1007k|  70.9 |   100M |  21 | 470 |  46 | 613 | 375k|  6 | 576 | 429 | 7.849526e+00 | 9.195102e+00 |  17.14%|  94.10%
 time | node  | left  |LP iter|LP it/n|mem/heur|mdpt |vars |cons |rows |cuts |sepa|confs|strbr|  dualbound   | primalbound  |  gap   | compl. 
 50.3s| 14300 |   321 |  1011k|  70.7 |   100M |  21 | 470 |  46 | 949 | 376k|  7 | 585 | 431 | 7.915767e+00 | 9.195102e+00 |  16.16%|  94.71%
 50.5s| 14400 |   267 |  1014k|  70.4 |   100M |  21 | 470 |  46 |1238 | 376k|  0 | 592 | 434 | 8.004334e+00 | 9.195102e+00 |  14.88%|  95.54%
 50.6s| 14500 |   227 |  1017k|  70.1 |   100M |  21 | 470 |  46 | 641 | 377k|  2 | 598 | 436 | 8.070469e+00 | 9.195102e+00 |  13.94%|  96.38%
 50.8s| 14600 |   177 |  1020k|  69.8 |   100M |  21 | 470 |  46 | 871 | 378k|  2 | 600 | 438 | 8.161581e+00 | 9.195102e+00 |  12.66%|  97.23%
 51.0s| 14700 |   127 |  1023k|  69.6 |   100M |  21 | 470 |  46 | 637 | 379k|  3 | 602 | 438 | 8.207126e+00 | 9.195102e+00 |  12.04%|  97.82%
 51.2s| 14800 |    69 |  1027k|  69.4 |   100M |  21 | 470 |  46 | 598 | 379k|  0 | 610 | 440 | 8.360586e+00 | 9.195102e+00 |   9.98%|  99.02%
 51.3s| 14900 |     3 |  1029k|  69.1 |    99M |  21 | 470 |  46 | 588 | 380k|  2 | 613 | 440 | 9.128486e+00 | 9.195102e+00 |   0.73%|  99.99%

SCIP Status        : problem is solved [optimal solution found]
Solving Time (sec) : 51.32
Solving Nodes      : 14905
Primal Bound       : +9.19510159394209e+00 (10 solutions)
Dual Bound         : +9.19510159394209e+00
Gap                : 0.00 %


--- Reading solution for model GAMS_MODEL
***
*** Solver did not provide marginals for model GAMS_MODEL
***
--- Executing after solve: elapsed 0:00:51.393
--- model.gms(240) 3 Mb
--- model.gms(397) 5 Mb
--- Putfile results /local/scratch/a/sgusev/repos/k_means/data/gams_scip_gdp.binary_multiplication/no_mode/2026-02-19_10-00-17/original/results.dat
--- Putfile statresults /local/scratch/a/sgusev/repos/k_means/data/gams_scip_gdp.binary_multiplication/no_mode/2026-02-19_10-00-17/original/resultsstat.dat
*** Status: Normal completion
--- Job model.gms Stop 02/19/26 10:01:09 elapsed 0:00:51.393
Original problem solved. Time taken: 51.891841888427734 seconds
Original objective value: 9.195101593942095
